c colouring generated by benchmark framework
p edge 250 27897
v 1 49
v 2 33
v 3 60
v 4 36
v 5 45
v 6 67
v 7 52
v 8 47
v 9 16
v 10 13
v 11 73
v 12 34
v 13 10
v 14 58
v 15 44
v 16 53
v 17 54
v 18 57
v 19 10
v 20 61
v 21 3
v 22 54
v 23 4
v 24 5
v 25 37
v 26 41
v 27 70
v 28 38
v 29 32
v 30 78
v 31 80
v 32 28
v 33 84
v 34 59
v 35 56
v 36 30
v 37 26
v 38 7
v 39 60
v 40 74
v 41 6
v 42 68
v 43 39
v 44 40
v 45 15
v 46 39
v 47 54
v 48 41
v 49 61
v 50 51
v 51 79
v 52 69
v 53 12
v 54 3
v 55 21
v 56 74
v 57 32
v 58 45
v 59 14
v 60 35
v 61 12
v 62 9
v 63 79
v 64 37
v 65 18
v 66 19
v 67 83
v 68 42
v 69 84
v 70 69
v 71 51
v 72 27
v 73 33
v 74 77
v 75 75
v 76 10
v 77 9
v 78 28
v 79 41
v 80 6
v 81 89
v 82 43
v 83 49
v 84 85
v 85 42
v 86 39
v 87 31
v 88 63
v 89 2
v 90 7
v 91 0
v 92 14
v 93 63
v 94 14
v 95 1
v 96 63
v 97 34
v 98 79
v 99 65
v 100 0
v 101 48
v 102 81
v 103 72
v 104 20
v 105 41
v 106 56
v 107 15
v 108 36
v 109 65
v 110 29
v 111 22
v 112 53
v 113 15
v 114 77
v 115 85
v 116 35
v 117 59
v 118 67
v 119 76
v 120 29
v 121 30
v 122 19
v 123 24
v 124 4
v 125 50
v 126 22
v 127 76
v 128 27
v 129 27
v 130 46
v 131 60
v 132 86
v 133 37
v 134 45
v 135 51
v 136 47
v 137 2
v 138 55
v 139 78
v 140 16
v 141 64
v 142 82
v 143 44
v 144 48
v 145 64
v 146 31
v 147 67
v 148 71
v 149 32
v 150 18
v 151 16
v 152 46
v 153 28
v 154 20
v 155 13
v 156 31
v 157 73
v 158 79
v 159 3
v 160 62
v 161 43
v 162 10
v 163 66
v 164 26
v 165 8
v 166 57
v 167 38
v 168 4
v 169 1
v 170 52
v 171 47
v 172 58
v 173 1
v 174 0
v 175 52
v 176 70
v 177 19
v 178 62
v 179 29
v 180 20
v 181 72
v 182 24
v 183 17
v 184 68
v 185 66
v 186 53
v 187 25
v 188 21
v 189 74
v 190 80
v 191 57
v 192 75
v 193 50
v 194 38
v 195 87
v 196 86
v 197 80
v 198 21
v 199 70
v 200 71
v 201 6
v 202 81
v 203 9
v 204 46
v 205 76
v 206 42
v 207 4
v 208 82
v 209 84
v 210 58
v 211 40
v 212 17
v 213 35
v 214 77
v 215 88
v 216 8
v 217 71
v 218 38
v 219 23
v 220 24
v 221 82
v 222 53
v 223 36
v 224 34
v 225 49
v 226 11
v 227 43
v 228 55
v 229 50
v 230 32
v 231 11
v 232 25
v 233 48
v 234 56
v 235 83
v 236 5
v 237 40
v 238 60
v 239 5
v 240 12
v 241 22
v 242 23
v 243 44
v 244 13
v 245 26
v 246 18
v 247 73
v 248 23
v 249 87
v 250 25
